c SAT problem
p wcnf 96 399
1 -60 3120 0
1 -60 3165 0
1 75 3165 0
1 90 3150 0
1 -90 3120 0
1 -105 -106 0
1 -105 3150 0
1 105 3090 0
1 105 -3060 0
1 3120 -196 0
1 3120 -165 0
1 -3120 -3121 0
1 3120 181 0
1 -3120 -90 0
1 -3120 3135 0
1 3135 -3136 0
1 3135 -75 0
1 -3135 -60 0
1 -3150 -136 0
1 -3150 -75 0
1 3150 -60 0
1 3150 3165 0
1 -3165 166 0
1 3165 -3150 0
1 3165 -90 0
1 -3165 -60 0
1 -3165 3166 0
1 120 3105 0
1 120 -3090 0
1 -120 121 0
1 -135 3075 0
1 -135 136 0
1 135 3090 0
1 -135 3135 0
1 -150 -3045 0
1 150 -3120 0
1 150 3090 0
1 -150 -3060 0
1 -150 3135 0
1 165 3075 0
1 165 166 0
1 -165 -3060 0
1 -165 150 0
1 165 3030 0
1 -3060 -195 0
1 3060 -3075 0
1 3060 135 0
1 3060 -105 0
1 -3060 210 0
1 -3060 -150 0
1 -3060 -120 0
1 3060 -90 0
1 -3075 3076 0
1 -3075 -165 0
1 3075 105 0
1 3075 240 0
1 -3075 -180 0
1 3075 255 0
1 3090 196 0
1 -3090 -105 0
1 -3090 240 0
1 -3090 255 0
1 3105 -226 0
1 3105 -105 0
1 3105 3090 0
1 -3105 -181 0
1 3105 120 0
1 3105 -90 0
1 180 3045 0
1 -180 3015 0
1 -180 -3000 0
1 195 -196 0
1 195 -3045 0
1 -195 -180 0
1 195 -3060 0
1 195 3030 0
1 210 -3045 0
1 -210 3015 0
1 210 211 0
1 -210 3030 0
1 210 -3000 0
1 -225 -3075 0
1 225 -3045 0
1 225 -3015 0
1 -3000 -150 0
1 -3015 -165 0
1 3015 -3016 0
1 3015 -150 0
1 3030 225 0
1 -3030 195 0
1 3030 270 0
1 -3030 240 0
1 3030 180 0
1 -3030 285 0
1 -3045 225 0
1 3045 3046 0
1 3045 270 0
1 -3045 -210 0
1 -3045 -3030 0
1 -3045 -315 0
1 61 3330 0
1 61 -3345 0
1 -76 -75 0
1 -76 3315 0
1 -91 -3240 0
1 -91 -106 0
1 -91 3315 0
1 91 -3255 0
1 -106 3300 0
1 -106 91 0
1 -3300 -76 0
1 3300 121 0
1 -3300 61 0
1 3315 -166 0
1 -3315 91 0
1 -3330 -3331 0
1 -3330 106 0
1 3330 76 0
1 -3330 -3345 0
1 -3330 -61 0
1 -3345 -61 0
1 121 3240 0
1 121 3255 0
1 -136 3300 0
1 136 3270 0
1 -136 3240 0
1 -136 -3285 0
1 -136 3165 0
1 151 -3240 0
1 151 -3150 0
1 151 -150 0
1 -151 3255 0
1 166 -165 0
1 166 151 0
1 -166 -3225 0
1 -166 3195 0
1 3240 3255 0
1 -3240 3241 0
1 -3240 106 0
1 3240 -181 0
1 -3240 -151 0
1 3240 91 0
1 -3255 -256 0
1 -3255 226 0
1 -3255 106 0
1 3255 241 0
1 -3255 211 0
1 3255 -151 0
1 3255 121 0
1 -3270 256 0
1 3270 166 0
1 -3270 -106 0
1 -3270 -241 0
1 3270 -3285 0
1 3285 -166 0
1 -3285 -106 0
1 3285 -241 0
1 3285 -3286 0
1 3285 91 0
1 181 3240 0
1 181 3210 0
1 181 3180 0
1 181 -3090 0
1 181 -3255 0
1 196 3105 0
1 196 3210 0
1 -196 3180 0
1 196 -3150 0
1 196 -3120 0
1 -196 -3090 0
1 -196 3165 0
1 -211 3105 0
1 211 3240 0
1 -211 -3180 0
1 211 3090 0
1 -211 -210 0
1 211 3255 0
1 211 3195 0
1 211 -3166 0
1 -226 3136 0
1 226 -3151 0
1 -226 -3121 0
1 -226 -211 0
1 226 3255 0
1 226 -3225 0
1 226 3166 0
1 3180 -196 0
1 -3180 -3181 0
1 3180 181 0
1 3180 3195 0
1 3180 285 0
1 -3195 196 0
1 -3195 -3196 0
1 3195 181 0
1 -3195 285 0
1 3195 255 0
1 -3210 -196 0
1 -3210 -3211 0
1 3210 301 0
1 3210 211 0
1 -3210 286 0
1 3225 -256 0
1 3225 196 0
1 3225 166 0
1 -3225 301 0
1 3225 -211 0
1 -3225 -181 0
1 240 -3105 0
1 240 -3045 0
1 255 -256 0
1 255 -3105 0
1 -255 -3180 0
1 -255 3121 0
1 255 3090 0
1 -255 3166 0
1 -270 -3076 0
1 270 271 0
1 270 3151 0
1 270 -3121 0
1 -270 3061 0
1 -270 -3030 0
1 270 -285 0
1 -270 -3166 0
1 285 -3106 0
1 -285 -3151 0
1 285 3030 0
1 285 -286 0
1 -3121 3120 0
1 3121 -285 0
1 3121 255 0
1 3136 361 0
1 -3136 330 0
1 3136 -240 0
1 3136 -211 0
1 3136 3135 0
1 -3151 226 0
1 -3151 -331 0
1 -3151 240 0
1 -3151 211 0
1 3151 376 0
1 3166 -226 0
1 -3166 211 0
1 -3166 376 0
1 -3166 346 0
1 -3166 255 0
1 300 3045 0
1 300 3121 0
1 -300 3061 0
1 -300 -3000 0
1 -300 -315 0
1 -315 3015 0
1 315 -3000 0
1 -330 3076 0
1 -330 -331 0
1 330 -3091 0
1 -345 -3136 0
1 345 3016 0
1 -345 330 0
1 345 -3121 0
1 345 -3091 0
1 -345 3061 0
1 345 -3031 0
1 3061 390 0
1 3061 -360 0
1 -3061 -330 0
1 3061 -270 0
1 -3061 315 0
1 -3076 3075 0
1 3076 390 0
1 -3076 -330 0
1 3076 3061 0
1 -3076 375 0
1 3076 -345 0
1 3091 391 0
1 3091 -270 0
1 -3091 -3090 0
1 3091 406 0
1 -3091 -345 0
1 3106 3105 0
1 3106 361 0
1 3106 -300 0
1 3106 -3091 0
1 -3106 376 0
1 -360 -3076 0
1 360 -3031 0
1 -360 -3061 0
1 -360 375 0
1 -375 -3001 0
1 -390 -3046 0
1 390 -3016 0
1 -390 -3061 0
1 -390 3001 0
1 -405 3061 0
1 3001 390 0
1 -3001 -360 0
1 3001 -330 0
1 3001 -405 0
1 3016 -390 0
1 3016 -3015 0
1 -3016 330 0
1 3016 -405 0
1 -3016 3001 0
1 3031 -390 0
1 -3046 390 0
1 3046 -360 0
1 3046 -3031 0
1 -3046 405 0
1 3046 375 0
1 3046 345 0
1 -241 -256 0
1 241 3301 0
1 -241 240 0
1 241 -3346 0
1 -241 -3255 0
1 256 -3346 0
1 -271 -3331 0
1 271 3301 0
1 271 -3271 0
1 -271 -3210 0
1 271 3346 0
1 271 3286 0
1 -271 -3225 0
1 271 -286 0
1 -286 3331 0
1 286 3241 0
1 -286 -3210 0
1 286 -3316 0
1 286 -3286 0
1 286 -285 0
1 -3301 -3300 0
1 3301 -241 0
1 3301 -3316 0
1 -3301 -316 0
1 3316 -256 0
1 -3316 -301 0
1 -3316 -286 0
1 3331 -256 0
1 3331 -241 0
1 3331 286 0
1 301 -3271 0
1 301 -3241 0
1 301 -300 0
1 301 3180 0
1 301 -3151 0
1 301 3316 0
1 301 3256 0
1 -301 3195 0
1 -316 3301 0
1 -316 -3241 0
1 -316 -3195 0
1 316 -3316 0
1 316 3256 0
1 316 -3225 0
1 331 3316 0
1 -346 -345 0
1 -3241 -3256 0
1 3241 3240 0
1 -3241 361 0
1 -3241 331 0
1 -3241 -271 0
1 3241 -376 0
1 -3256 -391 0
1 -3256 -331 0
1 -3256 -271 0
1 3256 -286 0
1 3271 -3270 0
1 3271 331 0
1 -3271 -271 0
1 -3271 3286 0
1 3271 -346 0
1 -3286 331 0
1 3286 3285 0
1 -3286 346 0
1 3286 316 0
1 3286 -286 0
1 -361 3256 0
1 -361 -3241 0
1 361 3181 0
1 361 376 0
1 -361 3226 0
1 -361 3166 0
1 -376 -3241 0
1 376 3256 0
1 376 -3166 0
1 391 -3106 0
1 -391 -3181 0
1 -391 3091 0
1 391 -406 0
1 391 -3196 0
1 -406 -3211 0
1 -406 -3181 0
1 406 -405 0
1 406 3196 0
1 -3181 361 0
1 3181 -331 0
1 3181 376 0
1 -3181 -3196 0
1 -3226 -361 0
1 3226 -331 0
